# Objective value = 14
WA1n 0
WA1p 0
WA2n 0
WA2p 1
WB1n 0
WB1p 0
WB2n 0
WB2p 1
WC1n 0
WC1p 1
WD1n 0
WD1p 1
WE1n 0
WE1p 1
WE2n 0
WE2p 1
WT1n 0
WT1p 3
WT2n 0
WT2p 1
5 7
a 0
b 1
c 0
d 1
e 1
f 1
g 1
h 1
i 1
j 1
